NAME : 10_3_3_3_(01).dat
COMMENT : Henke, Speranza, Wäscher, 2015
TYPE : MCVRP
DIMENSION : 11
EDGE_WEIGHT_TYPE : DISTANCE_MATRIX
CAPACITY : 1000
VEHICLES : 2
PRODUCT TYPES : 3
COMPARTMENTS : 3
NODE_COORD_SECTION
1 50 50
2 95.62 61.12
3 21.11 98.51
4 22.03 43.22
5 65.68 88.06
6 99.66 2.09
7 24.86 11.14
8 81.37 15.26
9 52.65 0.93
10 71.81 33.64
11 19.32 35.17
DEMAND_SECTION
1 0 0 0
2 26 0 42
3 68 62 16
4 72 76 7
5 100 33 24
6 32 60 33
7 63 43 18
8 87 75 26
9 80 82 44
10 101 8 33
11 114 6 53
DEPOT_SECTION
1
EOF